words_hard_train/5972.qaiger
aag 182 24 0 1 158
2
4
8
16
28
36
48
56
68
76
88
96
108
116
194
196
200
204
208
212
216
226
228
258
364
6 2 4
10 4 8
12 5 9
14 11 13
18 15 17
20 14 16
22 19 21
24 6 22
26 25 21
30 13 28
32 12 29
34 31 33
38 35 37
40 34 36
42 39 41
44 27 42
46 45 41
50 33 48
52 32 49
54 51 53
58 55 57
60 54 56
62 59 61
64 47 62
66 65 61
70 53 68
72 52 69
74 71 73
78 75 77
80 74 76
82 79 81
84 67 82
86 85 81
90 73 88
92 72 89
94 91 93
98 95 97
100 94 96
102 99 101
104 87 102
106 105 101
110 93 108
112 92 109
114 111 113
118 115 117
120 114 116
122 119 121
124 106 123
126 107 122
128 125 127
130 3 5
132 131 7
134 7 23
136 135 25
138 133 137
140 26 43
142 141 45
144 138 143
146 46 63
148 147 65
150 144 149
152 66 83
154 153 85
156 150 155
158 86 103
160 159 105
162 156 161
164 129 162
166 132 23
168 166 143
170 145 148
172 171 151
174 168 172
176 174 155
178 157 160
180 179 163
182 176 180
184 165 183
186 128 163
188 184 187
190 128 182
192 189 191
198 195 197
202 198 201
206 202 205
210 206 209
214 210 213
218 214 217
220 192 219
222 215 216
224 221 223
230 226 228
232 227 229
234 231 233
236 234 113
238 235 112
240 237 239
242 127 121
244 241 243
246 240 242
248 245 247
250 185 187
252 249 251
254 248 250
256 253 255
260 257 258
262 225 261
264 169 173
266 265 175
268 132 194
270 268 196
272 133 197
274 273 137
276 271 275
278 276 201
280 278 199
282 199 200
284 282 277
286 285 145
288 286 203
290 136 142
292 291 169
294 288 292
296 281 295
298 203 204
300 299 207
302 297 300
304 267 303
306 296 301
308 305 307
310 207 208
312 311 211
314 309 313
316 308 312
318 151 154
320 318 175
322 177 157
324 321 322
326 317 325
328 315 327
330 177 181
332 331 183
334 211 212
336 335 215
338 332 336
340 329 339
342 333 337
344 341 343
346 223 219
348 192 347
350 344 349
352 262 351
354 256 259
356 353 355
358 350 218
360 356 359
362 261 358
364 361 363
i0 2 y1[0]
i1 1 x2[0]
i2 1 x2[1]
i3 2 y1[1]
i4 1 x2[2]
i5 2 y1[2]
i6 1 x2[3]
i7 2 y1[3]
i8 1 x2[4]
i9 2 y1[4]
i10 1 x2[5]
i11 2 y1[5]
i12 1 x2[6]
i13 2 y1[6]
i14 2 y2[7]
i15 2 y2[6]
i16 2 y2[5]
i17 2 y2[4]
i18 2 y2[3]
i19 2 y2[2]
i20 2 y2[1]
i21 2 y1[7]
i22 1 x2[7]
i23 2 y2[0]
o0 bv[0]
c
simplified
  >
    reverse
      2 y2
    subtract
      1
      subtract
        2 y1
        1 x2
