words_hard_train/5972.qaiger.qdimacs
p cnf 182 475
a 2 34 4 44 14 114 54 24 0
e 1 3 5 6 7 8 9 10 11 12 13 15 16 17 18 19 20 21 22 23 25 26 27 28 29 30 31 32 33 35 36 37 38 39 40 41 42 43 45 46 47 48 49 50 51 52 53 55 56 57 58 59 60 61 62 63 64 65 66 67 68 69 70 71 72 73 74 75 76 77 78 79 80 81 82 83 84 85 86 87 88 89 90 91 92 93 94 95 96 97 98 99 100 101 102 103 104 105 106 107 108 109 110 111 112 113 115 116 117 118 119 120 121 122 123 124 125 126 127 128 129 130 131 132 133 134 135 136 137 138 139 140 141 142 143 144 145 146 147 148 149 150 151 152 153 154 155 156 157 158 159 160 161 162 163 164 165 166 167 168 169 170 171 172 173 174 175 176 177 178 179 180 181 182 0
-1 -2 3 0
1 -3 0
2 -3 0
-2 -4 5 0
2 -5 0
4 -5 0
2 4 6 0
-2 -6 0
-4 -6 0
5 6 7 0
-5 -7 0
-6 -7 0
7 8 9 0
-7 -9 0
-8 -9 0
-7 -8 10 0
7 -10 0
8 -10 0
9 10 11 0
-9 -11 0
-10 -11 0
-3 -11 12 0
3 -12 0
11 -12 0
12 10 13 0
-12 -13 0
-10 -13 0
6 -14 15 0
-6 -15 0
14 -15 0
-6 14 16 0
6 -16 0
-14 -16 0
15 16 17 0
-15 -17 0
-16 -17 0
17 18 19 0
-17 -19 0
-18 -19 0
-17 -18 20 0
17 -20 0
18 -20 0
19 20 21 0
-19 -21 0
-20 -21 0
13 -21 22 0
-13 -22 0
21 -22 0
22 20 23 0
-22 -23 0
-20 -23 0
16 -24 25 0
-16 -25 0
24 -25 0
-16 24 26 0
16 -26 0
-24 -26 0
25 26 27 0
-25 -27 0
-26 -27 0
27 28 29 0
-27 -29 0
-28 -29 0
-27 -28 30 0
27 -30 0
28 -30 0
29 30 31 0
-29 -31 0
-30 -31 0
23 -31 32 0
-23 -32 0
31 -32 0
32 30 33 0
-32 -33 0
-30 -33 0
26 -34 35 0
-26 -35 0
34 -35 0
-26 34 36 0
26 -36 0
-34 -36 0
35 36 37 0
-35 -37 0
-36 -37 0
37 38 39 0
-37 -39 0
-38 -39 0
-37 -38 40 0
37 -40 0
38 -40 0
39 40 41 0
-39 -41 0
-40 -41 0
33 -41 42 0
-33 -42 0
41 -42 0
42 40 43 0
-42 -43 0
-40 -43 0
36 -44 45 0
-36 -45 0
44 -45 0
-36 44 46 0
36 -46 0
-44 -46 0
45 46 47 0
-45 -47 0
-46 -47 0
47 48 49 0
-47 -49 0
-48 -49 0
-47 -48 50 0
47 -50 0
48 -50 0
49 50 51 0
-49 -51 0
-50 -51 0
43 -51 52 0
-43 -52 0
51 -52 0
52 50 53 0
-52 -53 0
-50 -53 0
46 -54 55 0
-46 -55 0
54 -55 0
-46 54 56 0
46 -56 0
-54 -56 0
55 56 57 0
-55 -57 0
-56 -57 0
57 58 59 0
-57 -59 0
-58 -59 0
-57 -58 60 0
57 -60 0
58 -60 0
59 60 61 0
-59 -61 0
-60 -61 0
-53 61 62 0
53 -62 0
-61 -62 0
53 -61 63 0
-53 -63 0
61 -63 0
62 63 64 0
-62 -64 0
-63 -64 0
1 2 65 0
-1 -65 0
-2 -65 0
65 3 66 0
-65 -66 0
-3 -66 0
3 11 67 0
-3 -67 0
-11 -67 0
67 12 68 0
-67 -68 0
-12 -68 0
66 68 69 0
-66 -69 0
-68 -69 0
-13 21 70 0
13 -70 0
-21 -70 0
70 22 71 0
-70 -71 0
-22 -71 0
-69 71 72 0
69 -72 0
-71 -72 0
-23 31 73 0
23 -73 0
-31 -73 0
73 32 74 0
-73 -74 0
-32 -74 0
-72 74 75 0
72 -75 0
-74 -75 0
-33 41 76 0
33 -76 0
-41 -76 0
76 42 77 0
-76 -77 0
-42 -77 0
-75 77 78 0
75 -78 0
-77 -78 0
-43 51 79 0
43 -79 0
-51 -79 0
79 52 80 0
-79 -80 0
-52 -80 0
-78 80 81 0
78 -81 0
-80 -81 0
64 -81 82 0
-64 -82 0
81 -82 0
-66 11 83 0
66 -83 0
-11 -83 0
-83 71 84 0
83 -84 0
-71 -84 0
72 -74 85 0
-72 -85 0
74 -85 0
85 75 86 0
-85 -86 0
-75 -86 0
-84 -86 87 0
84 -87 0
86 -87 0
-87 77 88 0
87 -88 0
-77 -88 0
78 -80 89 0
-78 -89 0
80 -89 0
89 81 90 0
-89 -90 0
-81 -90 0
-88 -90 91 0
88 -91 0
90 -91 0
82 91 92 0
-82 -92 0
-91 -92 0
-64 81 93 0
64 -93 0
-81 -93 0
-92 93 94 0
92 -94 0
-93 -94 0
-64 -91 95 0
64 -95 0
91 -95 0
94 95 96 0
-94 -96 0
-95 -96 0
97 98 99 0
-97 -99 0
-98 -99 0
-99 100 101 0
99 -101 0
-100 -101 0
-101 102 103 0
101 -103 0
-102 -103 0
-103 104 105 0
103 -105 0
-104 -105 0
-105 106 107 0
105 -107 0
-106 -107 0
-107 108 109 0
107 -109 0
-108 -109 0
-96 109 110 0
96 -110 0
-109 -110 0
107 -108 111 0
-107 -111 0
108 -111 0
110 111 112 0
-110 -112 0
-111 -112 0
-113 -114 115 0
113 -115 0
114 -115 0
113 114 116 0
-113 -116 0
-114 -116 0
115 116 117 0
-115 -117 0
-116 -117 0
-117 56 118 0
117 -118 0
-56 -118 0
117 -56 119 0
-117 -119 0
56 -119 0
118 119 120 0
-118 -120 0
-119 -120 0
63 60 121 0
-63 -121 0
-60 -121 0
120 121 122 0
-120 -122 0
-121 -122 0
-120 -121 123 0
120 -123 0
121 -123 0
122 123 124 0
-122 -124 0
-123 -124 0
92 93 125 0
-92 -125 0
-93 -125 0
124 125 126 0
-124 -126 0
-125 -126 0
-124 -125 127 0
124 -127 0
125 -127 0
126 127 128 0
-126 -128 0
-127 -128 0
128 -129 130 0
-128 -130 0
129 -130 0
112 130 131 0
-112 -131 0
-130 -131 0
84 86 132 0
-84 -132 0
-86 -132 0
132 87 133 0
-132 -133 0
-87 -133 0
-66 -97 134 0
66 -134 0
97 -134 0
-134 -98 135 0
134 -135 0
98 -135 0
66 98 136 0
-66 -136 0
-98 -136 0
136 68 137 0
-136 -137 0
-68 -137 0
135 137 138 0
-135 -138 0
-137 -138 0
-138 100 139 0
138 -139 0
-100 -139 0
-139 99 140 0
139 -140 0
-99 -140 0
99 -100 141 0
-99 -141 0
100 -141 0
-141 138 142 0
141 -142 0
-138 -142 0
142 72 143 0
-142 -143 0
-72 -143 0
-143 101 144 0
143 -144 0
-101 -144 0
-68 -71 145 0
68 -145 0
71 -145 0
145 84 146 0
-145 -146 0
-84 -146 0
-144 -146 147 0
144 -147 0
146 -147 0
140 147 148 0
-140 -148 0
-147 -148 0
101 -102 149 0
-101 -149 0
102 -149 0
149 103 150 0
-149 -150 0
-103 -150 0
148 -150 151 0
-148 -151 0
150 -151 0
133 151 152 0
-133 -152 0
-151 -152 0
-148 150 153 0
148 -153 0
-150 -153 0
152 153 154 0
-152 -154 0
-153 -154 0
103 -104 155 0
-103 -155 0
104 -155 0
155 105 156 0
-155 -156 0
-105 -156 0
154 156 157 0
-154 -157 0
-156 -157 0
-154 -156 158 0
154 -158 0
156 -158 0
75 -77 159 0
-75 -159 0
77 -159 0
-159 87 160 0
159 -160 0
-87 -160 0
88 78 161 0
-88 -161 0
-78 -161 0
160 -161 162 0
-160 -162 0
161 -162 0
158 162 163 0
-158 -163 0
-162 -163 0
157 163 164 0
-157 -164 0
-163 -164 0
88 90 165 0
-88 -165 0
-90 -165 0
165 91 166 0
-165 -166 0
-91 -166 0
105 -106 167 0
-105 -167 0
106 -167 0
167 107 168 0
-167 -168 0
-107 -168 0
-166 -168 169 0
166 -169 0
168 -169 0
164 169 170 0
-164 -170 0
-169 -170 0
166 168 171 0
-166 -171 0
-168 -171 0
170 171 172 0
-170 -172 0
-171 -172 0
111 109 173 0
-111 -173 0
-109 -173 0
-96 173 174 0
96 -174 0
-173 -174 0
-172 174 175 0
172 -175 0
-174 -175 0
-131 175 176 0
131 -176 0
-175 -176 0
-128 129 177 0
128 -177 0
-129 -177 0
176 177 178 0
-176 -178 0
-177 -178 0
-175 -109 179 0
175 -179 0
109 -179 0
-178 179 180 0
178 -180 0
-179 -180 0
130 -179 181 0
-130 -181 0
179 -181 0
180 181 182 0
-180 -182 0
-181 -182 0
182 0
